clingo version 4.5.4
Reading from dataset/spouse/rules/amie/hard/top5 ...
Solving...
Answer: 1
child("Bill_Clinton","Chelsea_Clinton") restingPlace("Frank_D._White","Mount Holly Cemetery in Little Rock") spouse("Frank_D._White","div.") spouse("Frank_D._White","Gay Daniels White") spouse("Frank_D._White","Mary Blue Hollenberg White") spouse("Joe_Purcell","Helen Hale Purcell") spouse("David_Pryor","Barbara Jean Lunsford") spouse("Jim_Guy_Tucker","Betty Tucker") spouse("Winston_Bryant","Susan Hughes Bryant") child("George_H._W._Bush","Marvin_Bush") child("George_H._W._Bush","Dorothy_Bush_Koch") child("George_H._W._Bush","Jeb_Bush") child("George_H._W._Bush","George_W._Bush") child("George_H._W._Bush","Neil_Bush") child("Virginia_Clinton_Kelley","Roger_Clinton,_Jr.") child("Virginia_Clinton_Kelley","Bill_Clinton") child("David_Pryor","Mark_Pryor") child("George_W._Bush","Barbara_Bush_(born_1981)") child("George_W._Bush","Jenna_Bush_Hager") child("Hillary_Clinton","Chelsea_Clinton") parent("Chelsea_Clinton","Bill_Clinton") parent("Chelsea_Clinton","Hillary_Clinton") relation("Chelsea_Clinton","Clinton_family") relation("George_H._W._Bush","Bush_family") relation("Virginia_Clinton_Kelley","Chelsea_Clinton") relation("William_Jefferson_Blythe_Jr.","Chelsea_Clinton") relation("George_W._Bush","Bush_family") restingPlace("Virginia_Clinton_Kelley","Hope,_Arkansas") restingPlace("William_Jefferson_Blythe_Jr.","United_States") restingPlace("William_Jefferson_Blythe_Jr.","Hope,_Arkansas") spouse("Chelsea_Clinton","Marc_Mezvinsky") spouse("George_H._W._Bush","Barbara_Bush") spouse("Al_Gore","Tipper_Gore") spouse("George_W._Bush","Laura_Bush") spouse("Hillary_Clinton","Bill_Clinton") spouse("William_Joseph_Burns","Lisa Carty") spouse("Rick_Lazio","Patricia Moriarty Lazio") spouse("Daniel_Patrick_Moynihan","Liz Brennan") spouse("James_Steinberg","Sherburne Abbott") spouse("Kirsten_Gillibrand","Jonathan Gillibrand") spouse("John_Spencer_(politician)","Eileen Looney, 1971&ndash;divorce") spouse("John_Spencer_(politician)","Kathy Spring-Spencer, 2003&ndash;present") child("Laura_Bush","Barbara_Pierce_Bush") child("Laura_Bush","Jenna_Bush_Hager") child("Barbara_Bush","Marvin_Bush") child("Barbara_Bush","Dorothy_Bush_Koch") child("Barbara_Bush","Jeb_Bush") child("Barbara_Bush","George_W._Bush") child("Barbara_Bush","Neil_Bush") child("John_Kerry","Alexandra_Kerry") child("John_Kerry","Vanessa_Kerry") spouse("Barack_Obama","Michelle_Obama") spouse("Laura_Bush","George_W._Bush") spouse("Barbara_Bush","George_H._W._Bush") spouse("John_Kerry","Teresa_Heinz") spouse("John_Kerry","Julia_Thorne") spouse("Bill_Clinton","Bill_Clinton") spouse("Bill_Clinton","Hillary_Clinton") spouse("Hillary_Clinton","Hillary_Clinton") spouse("George_H._W._Bush","George_H._W._Bush") spouse("Virginia_Clinton_Kelley","Virginia_Clinton_Kelley") spouse("David_Pryor","David_Pryor") spouse("George_W._Bush","George_W._Bush") spouse("Laura_Bush","Laura_Bush") spouse("Barbara_Bush","Barbara_Bush") spouse("John_Kerry","John_Kerry") spouse("Bill_Clinton","Clinton_family") spouse("Hillary_Clinton","Clinton_family") spouse("George_H._W._Bush","Bush_family") spouse("Barbara_Bush","Bush_family") spouse("div.","Frank_D._White") spouse("Gay Daniels White","Frank_D._White") spouse("Mary Blue Hollenberg White","Frank_D._White") spouse("Helen Hale Purcell","Joe_Purcell") spouse("Barbara Jean Lunsford","David_Pryor") spouse("Betty Tucker","Jim_Guy_Tucker") spouse("Susan Hughes Bryant","Winston_Bryant") spouse("Marc_Mezvinsky","Chelsea_Clinton") spouse("Tipper_Gore","Al_Gore") spouse("Lisa Carty","William_Joseph_Burns") spouse("Patricia Moriarty Lazio","Rick_Lazio") spouse("Liz Brennan","Daniel_Patrick_Moynihan") spouse("Sherburne Abbott","James_Steinberg") spouse("Jonathan Gillibrand","Kirsten_Gillibrand") spouse("Eileen Looney, 1971&ndash;divorce","John_Spencer_(politician)") spouse("Kathy Spring-Spencer, 2003&ndash;present","John_Spencer_(politician)") spouse("Michelle_Obama","Barack_Obama") spouse("Teresa_Heinz","John_Kerry") spouse("Julia_Thorne","John_Kerry") spouse("Clinton_family","Bill_Clinton") spouse("Clinton_family","Hillary_Clinton") spouse("Bush_family","George_H._W._Bush") spouse("Bush_family","Barbara_Bush")
SATISFIABLE

Models       : 1     
Calls        : 1
Time         : 0.001s (Solving: 0.00s 1st Model: 0.00s Unsat: 0.00s)
CPU Time     : 0.000s
